(set-info :source loris-7.ddns.comp.nus.edu.sg/~project/hip/) 
(set-info :smt-lib-version 2.0) 
(set-info :status  sat) 
;Variables declarations
(declare-fun v_bool_70_2246_primed () Int)
(declare-fun v_bool_69_2247_primed () Int)
(declare-fun v_bool_50_2248_primed () Int)
(declare-fun tm () Int)
(declare-fun b () Int)
(declare-fun tn () Int)
(declare-fun v_bool_48_2249_primed () Int)
(declare-fun tmp_primed () Int)
(declare-fun x_primed () Int)
(declare-fun x () Int)
(declare-fun t () Int)
(declare-fun m2_3782 () Int)
(declare-fun n2_3783 () Int)
(declare-fun Anon_3784 () Int)
(declare-fun tm_4091 () Int)
(declare-fun tn_4092 () Int)
(declare-fun b_4093 () Int)
(declare-fun right_68_4122 () Int)
(declare-fun q_3781 () Int)
(declare-fun flted_43_4115 () Int)
(declare-fun resn_4116 () Int)
(declare-fun resb_4117 () Int)
(declare-fun m () Int)
(declare-fun b_4133 () Int)
(declare-fun m1_3778 () Int)
(declare-fun n1_3779 () Int)
(declare-fun Anon_3780 () Int)
(declare-fun n () Int)
(declare-fun m2_4239 () Int)
(declare-fun n2_4240 () Int)
(declare-fun Anon_4241 () Int)
(declare-fun m1_4235 () Int)
(declare-fun n1_4236 () Int)
(declare-fun Anon_4237 () Int)
(declare-fun Anon_46 () Int)
(declare-fun Anon_3776 () Int)
(declare-fun Anon_47 () Int)
(declare-fun n_3775 () Int)
(declare-fun l () Int)
(declare-fun p_3777 () Int)
(declare-fun r () Int)
(declare-fun Anon_48 () Int)
(declare-fun Anon_4233 () Int)
(declare-fun Anon_49 () Int)
(declare-fun n_4232 () Int)
(declare-fun rl () Int)
(declare-fun p_4234 () Int)
(declare-fun rr () Int)
(declare-fun q_4238 () Int)
(declare-fun m_4244 () Int)
(declare-fun n_4245 () Int)
(declare-fun b_4246 () Int)
(declare-fun m_4263 () Int)
(declare-fun n_4264 () Int)
(declare-fun b_4265 () Int)
(declare-fun v_node_68_4127 () Int)
(declare-fun m_4152 () Int)
(declare-fun n_4153 () Int)
(declare-fun b_4154 () Int)
(declare-fun t_primed () Int)
(declare-fun tmp1_4303 () Int)
(declare-fun resn_4304 () Int)
(declare-fun tmp2_4305 () Int)
(declare-fun resln_4306 () Int)
(declare-fun am () Int)
(declare-fun an () Int)
(declare-fun ba1 () Int)
(declare-fun bm () Int)
(declare-fun bn () Int)
(declare-fun ba2 () Int)
(declare-fun cm () Int)
(declare-fun cn () Int)
(declare-fun ba3 () Int)
(declare-fun cn_4289 () Int)
(declare-fun ba3_4290 () Int)
(declare-fun cm_4288 () Int)
(declare-fun resr_4300 () Int)
(declare-fun an_4292 () Int)
(declare-fun ba1_4293 () Int)
(declare-fun am_4291 () Int)
(declare-fun resll_4301 () Int)
(declare-fun bn_4295 () Int)
(declare-fun ba2_4296 () Int)
(declare-fun bm_4294 () Int)
(declare-fun reslr_4302 () Int)
(declare-fun res () Int)
(declare-fun resl_4298 () Int)
;Relations declarations
;Axioms assertions
;Antecedent
(assert (> v_bool_70_2246_primed 0))
(assert (< n_4264 n_4245))
(assert (= m (+ (+ m2_4239 1) m1_4235)))
(assert (exists ((max_63 Int)) (and (= n (+ 1 max_63)) (or (and (= max_63 n1_4236) (>= n1_4236 n2_4240)) (and (= max_63 n2_4240) (< n1_4236 n2_4240))))))
(assert (= (+ b_4133 n2_4240) (+ 1 n1_4236)))
(assert (<= n2_4240 (+ 1 n1_4236)))
(assert (<= n1_4236 (+ n2_4240 1)))
(assert (= n_4232 n))
(assert (> v_bool_69_2247_primed 0))
(assert (not (> v_bool_50_2248_primed 0)))
(assert (<= Anon_3776 x_primed))
(assert (= tm (+ (+ m2_3782 1) m1_3778)))
(assert (exists ((max_63 Int)) (and (= tn (+ 1 max_63)) (or (and (= max_63 n1_3779) (>= n1_3779 n2_3783)) (and (= max_63 n2_3783) (< n1_3779 n2_3783))))))
(assert (= (+ b n2_3783) (+ 1 n1_3779)))
(assert (<= n2_3783 (+ 1 n1_3779)))
(assert (<= n1_3779 (+ n2_3783 1)))
(assert (= n_3775 tn))
(assert (not (> v_bool_48_2249_primed 0)))
(assert (< tmp_primed 1))
(assert (= x_primed x))
(assert (= t_primed t))
(assert (= tm_4091 m2_3782))
(assert (= tn_4092 n2_3783))
(assert (= b_4093 Anon_3784))
(assert (<= 0 m2_3782))
(assert (<= 0 n2_3783))
(assert (<= 0 Anon_3784))
(assert (<= Anon_3784 2))
(assert (= flted_43_4115 (+ 1 tm_4091)))
(assert (> q_3781 0))
(assert (< 0 tm_4091))
(assert (< 0 tn_4092))
(assert (or (= tn_4092 resn_4116) (and (= resn_4116 (+ 1 tn_4092)) (not (= resb_4117 1)))))
(assert (<= 0 tm_4091))
(assert (<= 0 tn_4092))
(assert (<= 0 b_4093))
(assert (<= b_4093 2))
(assert (= right_68_4122 q_3781))
(assert (= m flted_43_4115))
(assert (= n resn_4116))
(assert (= b_4133 resb_4117))
(assert (<= 0 flted_43_4115))
(assert (<= 0 resn_4116))
(assert (<= 0 resb_4117))
(assert (<= resb_4117 2))
(assert (<= 0 m))
(assert (<= 0 n))
(assert (<= 0 b_4133))
(assert (<= b_4133 2))
(assert (= m_4152 m1_3778))
(assert (= n_4153 n1_3779))
(assert (= b_4154 Anon_3780))
(assert (<= 0 m1_3778))
(assert (<= 0 n1_3779))
(assert (<= 0 Anon_3780))
(assert (<= Anon_3780 2))
(assert (= (+ 2 n_4153) n))
(assert (= m_4244 m2_4239))
(assert (= n_4245 n2_4240))
(assert (= b_4246 Anon_4241))
(assert (<= 0 m2_4239))
(assert (<= 0 n2_4240))
(assert (<= 0 Anon_4241))
(assert (<= Anon_4241 2))
(assert (= m_4263 m1_4235))
(assert (= n_4264 n1_4236))
(assert (= b_4265 Anon_4237))
(assert (<= 0 m1_4235))
(assert (<= 0 n1_4236))
(assert (<= 0 Anon_4237))
(assert (<= Anon_4237 2))
(assert (= Anon_46 Anon_3776))
(assert (= Anon_47 n_3775))
(assert (= l p_3777))
(assert (= r v_node_68_4127))
(assert (= am m_4152))
(assert (= an n_4153))
(assert (= ba1 b_4154))
(assert (= Anon_48 Anon_4233))
(assert (= Anon_49 n_4232))
(assert (= rl p_4234))
(assert (= rr q_4238))
(assert (= bm m_4263))
(assert (= bn n_4264))
(assert (= ba2 b_4265))
(assert (= cm m_4244))
(assert (= cn n_4245))
(assert (= ba3 b_4246))
(assert (<= 0 m_4244))
(assert (<= 0 n_4245))
(assert (<= 0 b_4246))
(assert (<= b_4246 2))
(assert (<= 0 m_4263))
(assert (<= 0 n_4264))
(assert (<= 0 b_4265))
(assert (<= b_4265 2))
(assert (> v_node_68_4127 0))
(assert (<= 0 m_4152))
(assert (<= 0 n_4153))
(assert (<= 0 b_4154))
(assert (<= b_4154 2))
(assert (> t_primed 0))
(assert (= resln_4306 (+ 1 tmp1_4303)))
(assert (or (and (= tmp1_4303 an) (>= an bn)) (and (= tmp1_4303 bn) (< an bn))))
(assert (= resn_4304 (+ 1 tmp2_4305)))
(assert (or (and (= tmp2_4305 resln_4306) (>= resln_4306 cn)) (and (= tmp2_4305 cn) (< resln_4306 cn))))
(assert (= cm_4288 cm))
(assert (= cn_4289 cn))
(assert (= ba3_4290 ba3))
(assert (= am_4291 am))
(assert (= an_4292 an))
(assert (= ba1_4293 ba1))
(assert (= bm_4294 bm))
(assert (= bn_4295 bn))
(assert (= ba2_4296 ba2))
(assert (<= 0 am))
(assert (<= 0 an))
(assert (<= 0 ba1))
(assert (<= ba1 2))
(assert (<= 0 bm))
(assert (<= 0 bn))
(assert (<= 0 ba2))
(assert (<= ba2 2))
(assert (<= 0 cm))
(assert (<= 0 cn))
(assert (<= 0 ba3))
(assert (<= ba3 2))
(assert (= res 1))
(assert (= resl_4298 2))
(assert (or (and (and (and (< resr_4300 1) (= cm_4288 0)) (= cn_4289 0)) (= ba3_4290 1)) (and (and (and (and (and (<= 0 ba3_4290) (<= (+ (- 0 cn_4289) 2) ba3_4290)) (<= ba3_4290 cn_4289)) (<= ba3_4290 2)) (<= 1 cm_4288)) (> resr_4300 0))))
(assert (or (and (and (and (< resll_4301 1) (= am_4291 0)) (= an_4292 0)) (= ba1_4293 1)) (and (and (and (and (and (<= 0 ba1_4293) (<= (+ (- 0 an_4292) 2) ba1_4293)) (<= ba1_4293 an_4292)) (<= ba1_4293 2)) (<= 1 am_4291)) (> resll_4301 0))))
(assert (or (and (and (and (< reslr_4302 1) (= bm_4294 0)) (= bn_4295 0)) (= ba2_4296 1)) (and (and (and (and (and (<= 0 ba2_4296) (<= (+ (- 0 bn_4295) 2) ba2_4296)) (<= ba2_4296 bn_4295)) (<= ba2_4296 2)) (<= 1 bm_4294)) (> reslr_4302 0))))
(assert (not (= res resl_4298)))
;Negation of Consequence
(assert (not false))
(check-sat)